rcpsp/heur_output_bi_constraints/Log=1/heurj60.txt
encoding rcpsp/j60.sm/j6013_7.sm nv: 1017920 nc: 2079006 enctime: 13.52
encoding rcpsp/j60.sm/j6013_7.sm nv: 349910 nc: 713376 enctime: 4.33
c File: j6013_7.smnaivebi1.wcnf
c timeout
c final solution cost: 88
c CPU time: 61.754679
s UNKNOWN

c File: j6013_7.smbi1.wcnf
c timeout
c final solution cost: 87
c CPU time: 60.539435
s UNKNOWN


rcpsp/heur_output_bi_constraints/Log=1/heurj60.txt
encoding rcpsp/j60.sm/j6013_8.sm nv: 912870 nc: 1888009 enctime: 12.45
encoding rcpsp/j60.sm/j6013_8.sm nv: 431298 nc: 890831 enctime: 5.16
c File: j6013_8.smnaivebi1.wcnf
c timeout
c final solution cost: 123
c CPU time: 61.680226
s UNKNOWN

c File: j6013_8.smbi1.wcnf
c timeout
c final solution cost: 120
c CPU time: 60.701696
s UNKNOWN


rcpsp/heur_output_bi_constraints/Log=1/heurj60.txt
encoding rcpsp/j60.sm/j6013_9.sm nv: 1068200 nc: 2194504 enctime: 14.17
encoding rcpsp/j60.sm/j6013_9.sm nv: 408968 nc: 838672 enctime: 4.89
c File: j6013_9.smnaivebi1.wcnf
c timeout
c final solution cost: 100
c CPU time: 61.971257
s UNKNOWN

c File: j6013_9.smbi1.wcnf
c timeout
c final solution cost: 102
c CPU time: 60.632158
s UNKNOWN


rcpsp/heur_output_bi_constraints/Log=1/heurj60.txt
encoding rcpsp/j60.sm/j601_3.sm nv: 117607 nc: 296084 enctime: 2.53
encoding rcpsp/j60.sm/j601_3.sm nv: 25599 nc: 62964 enctime: 0.36
c File: j601_3.smnaivebi1.wcnf
c optimal
c final solution cost: 47
c CPU time: 4.823522
s OPTIMUM FOUND

c File: j601_3.smbi1.wcnf
c optimal
c final solution cost: 47
c CPU time: 0.471537
s OPTIMUM FOUND


rcpsp/heur_output_bi_constraints/Log=1/heurj60.txt
encoding rcpsp/j60.sm/j6014_10.sm nv: 1792296 nc: 3637852 enctime: 23.40
encoding rcpsp/j60.sm/j6014_10.sm nv: 395076 nc: 799912 enctime: 4.42
c File: j6014_10.smnaivebi1.wcnf
c timeout
c final solution cost: 181
c CPU time: 62.902953
s UNKNOWN

c File: j6014_10.smbi1.wcnf
c timeout
c final solution cost: 65
c CPU time: 60.577627
s UNKNOWN


rcpsp/heur_output_bi_constraints/Log=1/heurj60.txt
encoding rcpsp/j60.sm/j6014_1.sm nv: 1890108 nc: 3806254 enctime: 24.44
encoding rcpsp/j60.sm/j6014_1.sm nv: 357588 nc: 718264 enctime: 4.77
c File: j6014_1.smnaivebi1.wcnf
c timeout
c final solution cost: 52
c CPU time: 62.897413
s UNKNOWN

c File: j6014_1.smbi1.wcnf
c timeout
c final solution cost: 52
c CPU time: 60.511077
s UNKNOWN


rcpsp/heur_output_bi_constraints/Log=1/heurj60.txt
encoding rcpsp/j60.sm/j6014_2.sm nv: 1766688 nc: 3563078 enctime: 22.91
encoding rcpsp/j60.sm/j6014_2.sm nv: 378576 nc: 761774 enctime: 4.38
c File: j6014_2.smnaivebi1.wcnf
c timeout
c final solution cost: 157
c CPU time: 62.834202
s UNKNOWN

c File: j6014_2.smbi1.wcnf
c timeout
c final solution cost: 55
c CPU time: 60.551583
s UNKNOWN


rcpsp/heur_output_bi_constraints/Log=1/heurj60.txt
encoding rcpsp/j60.sm/j6014_3.sm nv: 1549664 nc: 3122993 enctime: 20.16
encoding rcpsp/j60.sm/j6014_3.sm nv: 343280 nc: 690299 enctime: 3.92
c File: j6014_3.smnaivebi1.wcnf
c timeout
c final solution cost: 56
c CPU time: 62.496595
s UNKNOWN

c File: j6014_3.smbi1.wcnf
c timeout
c final solution cost: 56
c CPU time: 60.511936
s UNKNOWN


rcpsp/heur_output_bi_constraints/Log=1/heurj60.txt
encoding rcpsp/j60.sm/j6014_4.sm nv: 1708927 nc: 3455113 enctime: 22.61
encoding rcpsp/j60.sm/j6014_4.sm nv: 395538 nc: 798032 enctime: 4.52
c File: j6014_4.smnaivebi1.wcnf
c timeout
c final solution cost: 86
c CPU time: 62.825179
s UNKNOWN

c File: j6014_4.smbi1.wcnf
c timeout
c final solution cost: 58
c CPU time: 60.589581
s UNKNOWN


rcpsp/heur_output_bi_constraints/Log=1/heurj60.txt
encoding rcpsp/j60.sm/j6014_5.sm nv: 1606629 nc: 3232627 enctime: 21.07
encoding rcpsp/j60.sm/j6014_5.sm nv: 338778 nc: 680129 enctime: 3.95
c File: j6014_5.smnaivebi1.wcnf
c timeout
c CPU time: 62.239689
s UNKNOWN

c File: j6014_5.smbi1.wcnf
c timeout
c final solution cost: 51
c CPU time: 60.500824
s UNKNOWN


rcpsp/heur_output_bi_constraints/Log=1/heurj60.txt
encoding rcpsp/j60.sm/j6014_6.sm nv: 1610280 nc: 3244101 enctime: 20.85
encoding rcpsp/j60.sm/j6014_6.sm nv: 342504 nc: 688461 enctime: 4.52
c File: j6014_6.smnaivebi1.wcnf
c timeout
c final solution cost: 55
c CPU time: 62.545227
s UNKNOWN

c File: j6014_6.smbi1.wcnf
c timeout
c final solution cost: 56
c CPU time: 60.507145
s UNKNOWN


rcpsp/heur_output_bi_constraints/Log=1/heurj60.txt
encoding rcpsp/j60.sm/j6014_7.sm nv: 1460552 nc: 2950121 enctime: 19.17
encoding rcpsp/j60.sm/j6014_7.sm nv: 323540 nc: 651989 enctime: 3.74
c File: j6014_7.smnaivebi1.wcnf
c timeout
c final solution cost: 57
c CPU time: 62.379713
s UNKNOWN

c File: j6014_7.smbi1.wcnf
c timeout
c final solution cost: 58
c CPU time: 60.491271
s UNKNOWN


rcpsp/heur_output_bi_constraints/Log=1/heurj60.txt
encoding rcpsp/j60.sm/j6014_8.sm nv: 1281312 nc: 2584809 enctime: 16.84
encoding rcpsp/j60.sm/j6014_8.sm nv: 338124 nc: 680837 enctime: 3.85
c File: j6014_8.smnaivebi1.wcnf
c timeout
c final solution cost: 61
c CPU time: 62.078417
s UNKNOWN

c File: j6014_8.smbi1.wcnf
c timeout
c final solution cost: 58
c CPU time: 60.511010
s UNKNOWN


rcpsp/heur_output_bi_constraints/Log=1/heurj60.txt
encoding rcpsp/j60.sm/j6014_9.sm nv: 1557051 nc: 3136073 enctime: 20.60
encoding rcpsp/j60.sm/j6014_9.sm nv: 347691 nc: 698873 enctime: 4.03
c File: j6014_9.smnaivebi1.wcnf
c timeout
c final solution cost: 50
c CPU time: 62.472059
s UNKNOWN

c File: j6014_9.smbi1.wcnf
c timeout
c final solution cost: 51
c CPU time: 60.514060
s UNKNOWN


rcpsp/heur_output_bi_constraints/Log=1/heurj60.txt
encoding rcpsp/j60.sm/j601_4.sm nv: 124150 nc: 312249 enctime: 2.73
encoding rcpsp/j60.sm/j601_4.sm nv: 42402 nc: 105311 enctime: 0.61
c File: j601_4.smnaivebi1.wcnf
c optimal
c final solution cost: 61
c CPU time: 21.792618
s OPTIMUM FOUND

c File: j601_4.smbi1.wcnf
c optimal
c final solution cost: 61
c CPU time: 9.601521
s OPTIMUM FOUND


rcpsp/heur_output_bi_constraints/Log=1/heurj60.txt
encoding rcpsp/j60.sm/j6015_10.sm nv: 2039275 nc: 4083679 enctime: 26.43
encoding rcpsp/j60.sm/j6015_10.sm nv: 386175 nc: 771867 enctime: 4.57
c File: j6015_10.smnaivebi1.wcnf
c optimal
c final solution cost: 52
c CPU time: 4.353528
s OPTIMUM FOUND

c File: j6015_10.smbi1.wcnf
c optimal
c final solution cost: 52
c CPU time: 1.111019
s OPTIMUM FOUND


rcpsp/heur_output_bi_constraints/Log=1/heurj60.txt
encoding rcpsp/j60.sm/j6015_1.sm nv: 2067620 nc: 4158251 enctime: 27.11
encoding rcpsp/j60.sm/j6015_1.sm nv: 370320 nc: 743026 enctime: 4.45
c File: j6015_1.smnaivebi1.wcnf
c timeout
c CPU time: 62.865274
s UNKNOWN

c File: j6015_1.smbi1.wcnf
c timeout
c CPU time: 60.451195
s UNKNOWN


rcpsp/heur_output_bi_constraints/Log=1/heurj60.txt
encoding rcpsp/j60.sm/j6015_2.sm nv: 1727200 nc: 3489506 enctime: 22.99
encoding rcpsp/j60.sm/j6015_2.sm nv: 365760 nc: 737146 enctime: 4.27
c File: j6015_2.smnaivebi1.wcnf
c timeout
c final solution cost: 58
c CPU time: 62.748114
s UNKNOWN

c File: j6015_2.smbi1.wcnf
c timeout
c final solution cost: 57
c CPU time: 60.550014
s UNKNOWN


rcpsp/heur_output_bi_constraints/Log=1/heurj60.txt
encoding rcpsp/j60.sm/j6015_3.sm nv: 2432304 nc: 4879167 enctime: 31.90
encoding rcpsp/j60.sm/j6015_3.sm nv: 376936 nc: 754270 enctime: 4.62
c File: j6015_3.smnaivebi1.wcnf
c timeout
c CPU time: 63.444591
s UNKNOWN

c File: j6015_3.smbi1.wcnf
c timeout
c CPU time: 60.454035
s UNKNOWN


rcpsp/heur_output_bi_constraints/Log=1/heurj60.txt
encoding rcpsp/j60.sm/j6015_4.sm nv: 2218194 nc: 4472430 enctime: 29.55
encoding rcpsp/j60.sm/j6015_4.sm nv: 385515 nc: 775245 enctime: 5.49
c File: j6015_4.smnaivebi1.wcnf
c timeout
c final solution cost: 50
c CPU time: 63.657081
s UNKNOWN

c File: j6015_4.smbi1.wcnf
c timeout
c final solution cost: 49
c CPU time: 60.561966
s UNKNOWN


rcpsp/heur_output_bi_constraints/Log=1/heurj60.txt
encoding rcpsp/j60.sm/j6015_5.sm nv: 2133460 nc: 4293166 enctime: 27.95
encoding rcpsp/j60.sm/j6015_5.sm nv: 373200 nc: 749157 enctime: 4.44
c File: j6015_5.smnaivebi1.wcnf
c timeout
c final solution cost: 49
c CPU time: 63.468233
s UNKNOWN

c File: j6015_5.smbi1.wcnf
c timeout
c final solution cost: 49
c CPU time: 60.544461
s UNKNOWN


rcpsp/heur_output_bi_constraints/Log=1/heurj60.txt
encoding rcpsp/j60.sm/j6015_6.sm nv: 1857708 nc: 3740646 enctime: 24.40
encoding rcpsp/j60.sm/j6015_6.sm nv: 383778 nc: 771056 enctime: 5.19
c File: j6015_6.smnaivebi1.wcnf
c timeout
c CPU time: 62.600776
s UNKNOWN

c File: j6015_6.smbi1.wcnf
c timeout
c final solution cost: 49
c CPU time: 60.557088
s UNKNOWN


rcpsp/heur_output_bi_constraints/Log=1/heurj60.txt
encoding rcpsp/j60.sm/j6015_7.sm nv: 2288234 nc: 4586394 enctime: 30.12
encoding rcpsp/j60.sm/j6015_7.sm nv: 376805 nc: 753492 enctime: 4.60
c File: j6015_7.smnaivebi1.wcnf
c timeout
c final solution cost: 45
c CPU time: 63.641811
s UNKNOWN

c File: j6015_7.smbi1.wcnf
c timeout
c final solution cost: 45
c CPU time: 60.547819
s UNKNOWN


rcpsp/heur_output_bi_constraints/Log=1/heurj60.txt
encoding rcpsp/j60.sm/j6015_8.sm nv: 2220508 nc: 4475970 enctime: 29.79
encoding rcpsp/j60.sm/j6015_8.sm nv: 398710 nc: 801783 enctime: 4.85
c File: j6015_8.smnaivebi1.wcnf
c timeout
c CPU time: 63.248229
s UNKNOWN

c File: j6015_8.smbi1.wcnf
c timeout
c final solution cost: 49
c CPU time: 60.582000
s UNKNOWN


rcpsp/heur_output_bi_constraints/Log=1/heurj60.txt
encoding rcpsp/j60.sm/j6015_9.sm nv: 3013429 nc: 6033688 enctime: 40.05
encoding rcpsp/j60.sm/j6015_9.sm nv: 397550 nc: 793705 enctime: 4.00
c File: j6015_9.smnaivebi1.wcnf
c timeout
c CPU time: 64.174868
s UNKNOWN

c File: j6015_9.smbi1.wcnf
c timeout
c final solution cost: 36
c CPU time: 60.569968
s UNKNOWN


rcpsp/heur_output_bi_constraints/Log=1/heurj60.txt
encoding rcpsp/j60.sm/j601_5.sm nv: 118656 nc: 292572 enctime: 2.52
encoding rcpsp/j60.sm/j601_5.sm nv: 28416 nc: 68617 enctime: 0.40
c File: j601_5.smnaivebi1.wcnf
c optimal
c final solution cost: 49
c CPU time: 3.633795
s OPTIMUM FOUND

c File: j601_5.smbi1.wcnf
c optimal
c final solution cost: 49
c CPU time: 1.554691
s OPTIMUM FOUND


rcpsp/heur_output_bi_constraints/Log=1/heurj60.txt
encoding rcpsp/j60.sm/j6016_10.sm nv: 2712843 nc: 5435496 enctime: 35.74
encoding rcpsp/j60.sm/j6016_10.sm nv: 524331 nc: 1048680 enctime: 6.23
c File: j6016_10.smnaivebi1.wcnf
c timeout
c final solution cost: 36
c CPU time: 64.271328
s UNKNOWN

c File: j6016_10.smbi1.wcnf
c timeout
c final solution cost: 36
c CPU time: 60.774177
s UNKNOWN


rcpsp/heur_output_bi_constraints/Log=1/heurj60.txt
encoding rcpsp/j60.sm/j6016_1.sm nv: 3239832 nc: 6484546 enctime: 42.92
encoding rcpsp/j60.sm/j6016_1.sm nv: 495712 nc: 990106 enctime: 6.22
c File: j6016_1.smnaivebi1.wcnf
c optimal
c final solution cost: 41
c CPU time: 7.986207
s OPTIMUM FOUND

c File: j6016_1.smbi1.wcnf
c optimal
c final solution cost: 41
c CPU time: 1.333703
s OPTIMUM FOUND


rcpsp/heur_output_bi_constraints/Log=1/heurj60.txt
encoding rcpsp/j60.sm/j6016_2.sm nv: 3284064 nc: 6549902 enctime: 42.61
encoding rcpsp/j60.sm/j6016_2.sm nv: 478926 nc: 953402 enctime: 6.05
c File: j6016_2.smnaivebi1.wcnf
c optimal
c final solution cost: 29
c CPU time: 7.156502
s OPTIMUM FOUND

c File: j6016_2.smbi1.wcnf
c optimal
c final solution cost: 29
c CPU time: 1.408415
s OPTIMUM FOUND


rcpsp/heur_output_bi_constraints/Log=1/heurj60.txt
encoding rcpsp/j60.sm/j6016_3.sm nv: 2856396 nc: 5692601 enctime: 36.88
encoding rcpsp/j60.sm/j6016_3.sm nv: 508420 nc: 1011635 enctime: 6.18
c File: j6016_3.smnaivebi1.wcnf
c optimal
c final solution cost: 32
c CPU time: 6.137684
s OPTIMUM FOUND

c File: j6016_3.smbi1.wcnf
c optimal
c final solution cost: 32
c CPU time: 1.380015
s OPTIMUM FOUND


rcpsp/heur_output_bi_constraints/Log=1/heurj60.txt
encoding rcpsp/j60.sm/j6016_4.sm nv: 2570356 nc: 5133736 enctime: 33.83
encoding rcpsp/j60.sm/j6016_4.sm nv: 451660 nc: 900472 enctime: 5.55
c File: j6016_4.smnaivebi1.wcnf
c timeout
c final solution cost: 32
c CPU time: 63.950997
s UNKNOWN

c File: j6016_4.smbi1.wcnf
c timeout
c final solution cost: 31
c CPU time: 60.628220
s UNKNOWN


rcpsp/heur_output_bi_constraints/Log=1/heurj60.txt
encoding rcpsp/j60.sm/j6016_5.sm nv: 2998710 nc: 5981783 enctime: 39.46
encoding rcpsp/j60.sm/j6016_5.sm nv: 527046 nc: 1049607 enctime: 6.56
c File: j6016_5.smnaivebi1.wcnf
c optimal
c final solution cost: 54
c CPU time: 7.309230
s OPTIMUM FOUND

c File: j6016_5.smbi1.wcnf
c optimal
c final solution cost: 54
c CPU time: 1.346256
s OPTIMUM FOUND


rcpsp/heur_output_bi_constraints/Log=1/heurj60.txt
encoding rcpsp/j60.sm/j6016_6.sm nv: 2978536 nc: 5963659 enctime: 39.88
encoding rcpsp/j60.sm/j6016_6.sm nv: 534820 nc: 1068802 enctime: 6.55
c File: j6016_6.smnaivebi1.wcnf
c optimal
c final solution cost: 41
c CPU time: 7.401501
s OPTIMUM FOUND

c File: j6016_6.smbi1.wcnf
c optimal
c final solution cost: 41
c CPU time: 1.315726
s OPTIMUM FOUND


rcpsp/heur_output_bi_constraints/Log=1/heurj60.txt
encoding rcpsp/j60.sm/j6016_7.sm nv: 1893492 nc: 3795665 enctime: 24.90
encoding rcpsp/j60.sm/j6016_7.sm nv: 393948 nc: 788317 enctime: 4.65
c File: j6016_7.smnaivebi1.wcnf
c timeout
c final solution cost: 43
c CPU time: 62.882698
s UNKNOWN

c File: j6016_7.smbi1.wcnf
c timeout
c final solution cost: 44
c CPU time: 60.569280
s UNKNOWN


rcpsp/heur_output_bi_constraints/Log=1/heurj60.txt
encoding rcpsp/j60.sm/j6016_8.sm nv: 2924757 nc: 5848352 enctime: 38.91
encoding rcpsp/j60.sm/j6016_8.sm nv: 446004 nc: 889979 enctime: 5.62
c File: j6016_8.smnaivebi1.wcnf
c optimal
c final solution cost: 39
c CPU time: 7.363763
s OPTIMUM FOUND

c File: j6016_8.smbi1.wcnf
c optimal
c final solution cost: 39
c CPU time: 1.227921
s OPTIMUM FOUND


rcpsp/heur_output_bi_constraints/Log=1/heurj60.txt
encoding rcpsp/j60.sm/j6016_9.sm nv: 2741508 nc: 5467822 enctime: 35.93
encoding rcpsp/j60.sm/j6016_9.sm nv: 451242 nc: 898319 enctime: 5.52
c File: j6016_9.smnaivebi1.wcnf
c optimal
c final solution cost: 35
c CPU time: 5.929895
s OPTIMUM FOUND

c File: j6016_9.smbi1.wcnf
c optimal
c final solution cost: 35
c CPU time: 0.990959
s OPTIMUM FOUND


rcpsp/heur_output_bi_constraints/Log=1/heurj60.txt
encoding rcpsp/j60.sm/j601_6.sm nv: 107811 nc: 264951 enctime: 2.24
encoding rcpsp/j60.sm/j601_6.sm nv: 23958 nc: 57513 enctime: 0.33
c File: j601_6.smnaivebi1.wcnf
c optimal
c final solution cost: 58
c CPU time: 55.967923
s OPTIMUM FOUND

c File: j601_6.smbi1.wcnf
c timeout
c final solution cost: 58
c CPU time: 60.051943
s UNKNOWN


rcpsp/heur_output_bi_constraints/Log=1/heurj60.txt
encoding rcpsp/j60.sm/j6017_10.sm nv: 150745 nc: 393773 enctime: 3.85
encoding rcpsp/j60.sm/j6017_10.sm nv: 30975 nc: 78833 enctime: 0.49
c File: j6017_10.smnaivebi1.wcnf
c optimal
c final solution cost: 55
c CPU time: 1.895148
s OPTIMUM FOUND

c File: j6017_10.smbi1.wcnf
c optimal
c final solution cost: 55
c CPU time: 0.296680
s OPTIMUM FOUND


rcpsp/heur_output_bi_constraints/Log=1/heurj60.txt
encoding rcpsp/j60.sm/j6017_1.sm nv: 113982 nc: 292239 enctime: 2.80
encoding rcpsp/j60.sm/j6017_1.sm nv: 40656 nc: 102965 enctime: 0.63
c File: j6017_1.smnaivebi1.wcnf
c optimal
c final solution cost: 62
c CPU time: 6.625106
s OPTIMUM FOUND

c File: j6017_1.smbi1.wcnf
c optimal
c final solution cost: 62
c CPU time: 8.594768
s OPTIMUM FOUND


rcpsp/heur_output_bi_constraints/Log=1/heurj60.txt
encoding rcpsp/j60.sm/j6017_2.sm nv: 114138 nc: 290069 enctime: 2.73
encoding rcpsp/j60.sm/j6017_2.sm nv: 35435 nc: 88775 enctime: 0.54
c File: j6017_2.smnaivebi1.wcnf
c optimal
c final solution cost: 56
c CPU time: 38.301142
s OPTIMUM FOUND

c File: j6017_2.smbi1.wcnf
c optimal
c final solution cost: 56
c CPU time: 38.438125
s OPTIMUM FOUND


